(declare-const delta_k Int)
(declare-const delta_i Int)
(declare-const delta_j Int)
(assert (exists
         ((|k'?1?1| Int) (|j'?2?2| Int) (|S1,0?3_integralized?3| Int)
            (|i'?4?4| Int) (KSUM1?5?5 Int) (|K1,0?6?6| Int) (K?7?7 Int)
            (|i'?8?8| Int) (|j'?9?9| Int) (j?10?10 Int) (i?11?11 Int)
            (n?12?12 Int) (k?13?13 Int))
         (and (<= (- k?13?13) 0) (< (+ (- n?12?12) k?13?13) 0)
                (<= (- K?7?7) 0) (<= (- |K1,0?6?6|) 0)
                (= (+ |K1,0?6?6| (- K?7?7)) 0) (<= (+ KSUM1?5?5 (- K?7?7)) 0)
                (= (+ (- |S1,0?3_integralized?3|) |i'?4?4| (- |K1,0?6?6|)) 0)
                (= (+ (- KSUM1?5?5) |K1,0?6?6|) 0)
                (= |S1,0?3_integralized?3| 0)
                (or (and (= K?7?7 0) (= (+ (- |j'?2?2|) j?10?10) 0)
                           (= (- |i'?4?4|) 0))
                      (and (<= (+ (- K?7?7) 1) 0) (<= (+ (- n?12?12) 1) 0)
                             (<= (- k?13?13) 0)
                             (= (+ |j'?2?2| (- n?12?12)) 0)
                             (<= (+ (- |i'?4?4|) 1) 0) (<= (- k?13?13) 0)
                             (<= (+ |i'?4?4| (- n?12?12)) 0)))
                (= (+ |i'?4?4| (- K?7?7)) 0) (<= (- K?7?7) 0)
                (<= (- |i'?4?4|) 0) (< (- n?12?12) 0) (<= (- k?13?13) 0)
                (<= (+ (- |i'?4?4|) n?12?12) 0)
                (= (+ |k'?1?1| (- k?13?13) -1) 0)
                (= (+ |j'?9?9| (- |j'?2?2|)) 0)
                (= (+ |i'?8?8| (- |i'?4?4|)) 0)
                (= (+ delta_i (- (+ |i'?8?8| (- i?11?11)))) 0)
                (= (+ delta_j (- (+ |j'?9?9| (- j?10?10)))) 0)
                (= (+ delta_k (- (+ |k'?1?1| (- k?13?13)))) 0))))